7,0	0,0	14,6	8,2	0,0	0,0	0,0	0,0	0,0	9,5
12,8	7,8	0,0	11,1	6,6	0,0	0,0	19,6	0,0	0,0
0,0	0,0	6,1	0,0	10,5	5,8	0,0	0,0	9,1	0,0
11,5	0,0	15,3	0,0	0,0	0,0	8,9	0,0	0,0	0,0
0,0	17,7	0,0	7,3	7,4	0,0	0,0	20,0	0,0	0,0
0,0	13,8	8,8	0,0	16,6	7,3	0,0	0,0	7,4	0,0
0,0	12,0	0,0	17,3	0,0	0,0	19,4	0,0	0,0	9,0
8,3	0,0	6,1	0,0	0,0	0,0	0,0	0,0	0,0	11,1
0,0	11,2	0,0	7,6	8,9	0,0	0,0	11,5	0,0	0,0
0,0	0,0	14,7	0,0	0,0	9,8	11,3	0,0	0,0	19,3
0,0	16,1	0,0	0,0	14,4	0,0	8,7	0,0	7,3	7,6
15,4	0,0	18,4	0,0	19,0	0,0	8,3	10,0	8,4	0,0
0,0	7,1	0,0	0,0	0,0	13,6	0,0	16,4	16,0	18,6
11,5	10,9	8,5	0,0	0,0	6,0	0,0	20,0	16,3	0,0
11,0	0,0	14,9	0,0	9,0	12,5	13,4	11,4	0,0	0,0
0,0	13,7	0,0	15,1	0,0	12,8	0,0	6,4	0,0	0,0
19,6	0,0	13,1	7,9	12,2	0,0	0,0	19,4	0,0	0,0
0,0	0,0	13,3	0,0	0,0	8,0	16,4	0,0	5,5	10,0
15,0	0,0	0,0	17,0	15,8	16,3	14,6	5,6	0,0	14,0
0,0	19,5	0,0	17,2	0,0	0,0	9,5	0,0	16,3	15,8
									
2,7	3,1	2,9	3,2	4,2	4,7	4,7	2,6	4,3	4,6
